(set-info :smt-lib-version 2.5)
(set-logic ALL)
(declare-const BAV1 Bool)
(declare-const GEN5 String)
(declare-const GEN4 String)
(declare-const GEN3 String)
(declare-const GEN2 String)
(declare-const GEN1 String)
(declare-fun x () String)
(assert (not (= (str.in.re x (re.++ (re.* re.allchar) (str.to.re GEN1) (re.* re.allchar) re.allchar (re.* re.allchar) (re.* (str.to.re GEN2)) (re.* re.allchar))) (str.in.re x (re.++ (re.* (str.to.re GEN3)) (re.* (str.to.re GEN4)) (re.* re.allchar) (str.to.re GEN5) (re.* re.allchar) re.allchar (re.* re.allchar))))))
(assert (= BAV1 (= (str.in.re x (re.++ (re.* re.allchar) (str.to.re GEN1) (re.* re.allchar) re.allchar (re.* re.allchar) (re.* (str.to.re GEN2)) (re.* re.allchar))) (str.in.re x (re.++ (re.* (str.to.re GEN3)) (re.* (str.to.re GEN4)) (re.* re.allchar) (str.to.re GEN5) (re.* re.allchar) re.allchar (re.* re.allchar))))))
(check-sat)
(get-model)